30
1 0 46
2 0 32
2 1 52
3 0 45
3 1 45
3 2 54
4 0 24
4 1 50
4 2 22
4 3 59
5 0 39
5 1 15
5 2 6
5 3 52
5 4 54
6 0 46
6 1 3
6 2 60
6 3 27
6 4 41
6 5 55
7 0 58
7 1 51
7 2 1
7 3 12
7 4 57
7 5 43
7 6 12
8 0 39
8 1 60
8 2 15
8 3 29
8 4 12
8 5 56
8 6 50
8 7 54
9 0 46
9 1 23
9 2 15
9 3 30
9 4 60
9 5 16
9 6 28
9 7 20
9 8 23
10 0 51
10 1 6
10 2 10
10 3 32
10 4 59
10 5 53
10 6 17
10 7 48
10 8 19
10 9 42
11 0 25
11 1 1
11 2 36
11 3 12
11 4 52
11 5 22
11 6 15
11 7 58
11 8 29
11 9 50
11 10 53
12 0 40
12 1 53
12 2 9
12 3 23
12 4 48
12 5 3
12 6 43
12 7 56
12 8 48
12 9 22
12 10 53
12 11 52
13 0 52
13 1 38
13 2 12
13 3 15
13 4 34
13 5 32
13 6 53
13 7 46
13 8 60
13 9 49
13 10 25
13 11 6
13 12 26
14 0 52
14 1 10
14 2 2
14 3 23
14 4 45
14 5 18
14 6 50
14 7 33
14 8 38
14 9 28
14 10 44
14 11 19
14 12 20
14 13 1
15 0 34
15 1 35
15 2 24
15 3 37
15 4 52
15 5 56
15 6 46
15 7 49
15 8 50
15 9 52
15 10 12
15 11 37
15 12 20
15 13 16
15 14 49
16 0 9
16 1 29
16 2 14
16 3 34
16 4 13
16 5 34
16 6 23
16 7 21
16 8 9
16 9 37
16 10 55
16 11 11
16 12 12
16 13 21
16 14 58
16 15 41
17 0 28
17 1 52
17 2 23
17 3 33
17 4 6
17 5 6
17 6 45
17 7 8
17 8 22
17 9 34
17 10 13
17 11 3
17 12 36
17 13 33
17 14 36
17 15 25
17 16 14
18 0 17
18 1 46
18 2 16
18 3 29
18 4 54
18 5 19
18 6 15
18 7 23
18 8 18
18 9 57
18 10 33
18 11 10
18 12 8
18 13 7
18 14 44
18 15 9
18 16 29
18 17 50
19 0 50
19 1 47
19 2 4
19 3 53
19 4 3
19 5 26
19 6 1
19 7 25
19 8 49
19 9 58
19 10 26
19 11 3
19 12 54
19 13 24
19 14 32
19 15 60
19 16 13
19 17 1
19 18 42
20 0 19
20 1 9
20 2 46
20 3 10
20 4 57
20 5 37
20 6 53
20 7 56
20 8 50
20 9 24
20 10 3
20 11 60
20 12 4
20 13 11
20 14 28
20 15 25
20 16 23
20 17 37
20 18 36
20 19 22
21 0 4
21 1 1
21 2 47
21 3 23
21 4 3
21 5 45
21 6 32
21 7 35
21 8 2
21 9 29
21 10 28
21 11 17
21 12 45
21 13 29
21 14 19
21 15 33
21 16 45
21 17 5
21 18 4
21 19 23
21 20 15
22 0 44
22 1 30
22 2 47
22 3 2
22 4 17
22 5 40
22 6 50
22 7 16
22 8 31
22 9 54
22 10 20
22 11 4
22 12 59
22 13 26
22 14 1
22 15 47
22 16 36
22 17 57
22 18 3
22 19 33
22 20 51
22 21 21
23 0 27
23 1 35
23 2 13
23 3 39
23 4 46
23 5 4
23 6 19
23 7 55
23 8 52
23 9 60
23 10 51
23 11 30
23 12 56
23 13 59
23 14 29
23 15 5
23 16 56
23 17 51
23 18 2
23 19 9
23 20 5
23 21 51
23 22 38
24 0 6
24 1 10
24 2 39
24 3 2
24 4 59
24 5 43
24 6 15
24 7 42
24 8 36
24 9 23
24 10 51
24 11 51
24 12 26
24 13 2
24 14 58
24 15 18
24 16 39
24 17 22
24 18 34
24 19 52
24 20 15
24 21 9
24 22 53
24 23 43
25 0 57
25 1 13
25 2 13
25 3 49
25 4 26
25 5 7
25 6 58
25 7 29
25 8 5
25 9 45
25 10 36
25 11 36
25 12 15
25 13 27
25 14 11
25 15 1
25 16 53
25 17 36
25 18 1
25 19 15
25 20 45
25 21 22
25 22 18
25 23 33
25 24 47
26 0 27
26 1 44
26 2 43
26 3 25
26 4 39
26 5 45
26 6 24
26 7 28
26 8 56
26 9 33
26 10 56
26 11 28
26 12 11
26 13 23
26 14 31
26 15 16
26 16 39
26 17 36
26 18 40
26 19 7
26 20 4
26 21 11
26 22 9
26 23 60
26 24 48
26 25 22
27 0 36
27 1 31
27 2 30
27 3 1
27 4 59
27 5 39
27 6 4
27 7 60
27 8 9
27 9 38
27 10 7
27 11 7
27 12 23
27 13 11
27 14 60
27 15 36
27 16 40
27 17 59
27 18 12
27 19 55
27 20 4
27 21 29
27 22 39
27 23 60
27 24 20
27 25 6
27 26 18
28 0 21
28 1 50
28 2 24
28 3 52
28 4 29
28 5 17
28 6 54
28 7 45
28 8 37
28 9 49
28 10 43
28 11 34
28 12 58
28 13 36
28 14 55
28 15 32
28 16 26
28 17 45
28 18 27
28 19 54
28 20 7
28 21 30
28 22 11
28 23 7
28 24 37
28 25 44
28 26 58
28 27 22
29 0 60
29 1 20
29 2 16
29 3 39
29 4 20
29 5 4
29 6 26
29 7 38
29 8 34
29 9 50
29 10 46
29 11 57
29 12 36
29 13 33
29 14 3
29 15 32
29 16 42
29 17 6
29 18 59
29 19 9
29 20 26
29 21 51
29 22 48
29 23 38
29 24 9
29 25 57
29 26 7
29 27 55
29 28 13
